20
1 0 4
2 1 4
3 0 2
3 2 5
4 1 3
4 2 2
5 1 1
5 3 2
5 4 4
6 0 3
6 1 2
6 2 2
6 3 5
6 5 3
7 1 4
7 2 4
7 5 1
8 0 3
8 2 1
8 4 2
8 5 2
8 7 3
9 0 5
9 6 4
9 8 1
10 0 1
10 4 1
10 5 4
10 8 4
11 0 4
11 1 4
11 5 5
12 0 3
12 1 4
12 3 1
12 6 2
12 9 5
13 0 1
13 3 4
13 4 3
13 6 5
13 7 4
13 9 5
13 10 3
14 0 3
14 1 5
14 4 1
14 8 1
14 9 4
14 10 3
14 11 1
14 12 1
14 13 1
15 1 3
15 3 5
15 4 2
15 5 2
15 6 1
15 9 4
15 10 4
15 11 1
15 12 3
15 13 5
16 0 4
16 2 5
16 3 1
16 5 1
16 8 5
16 9 4
16 11 3
16 14 4
17 0 5
17 3 2
17 4 1
17 5 2
17 7 3
17 9 5
17 10 2
17 12 2
17 15 5
18 6 4
18 8 5
18 9 2
18 10 5
18 11 1
18 13 5
18 14 5
18 15 1
18 16 3
18 17 4
19 1 5
19 4 1
19 5 2
19 6 5
19 7 1
19 11 2
19 13 4
19 16 1
19 17 2
